# Solution for model r3_t27_m5_4
# Finished Task: 24 / 27
# Makespan: 747.0, Total Distance: 1170.0, Total Time: 2.0593
# R O S F
0 0 29 0.0 0.0
1 1 12 0.0 0.0
2 2 22 0.0 0.0
3 0 10 417.0 452.0
4 2 5 469.0 501.0
5 2 23 536.0 570.0
6 1 24 509.0 541.0
7 0 17 642.0 664.0
8 1 21 359.0 396.0
9 -1 -1 -1.0 -1.0
10 0 28 486.0 519.0
11 0 13 238.0 276.0
12 1 8 255.0 293.0
13 0 3 354.0 390.0
14 1 -1 702.0 728.0
15 2 -1 699.0 720.0
16 2 25 320.0 342.0
17 0 -1 717.0 747.0
18 2 15 622.0 645.0
19 -1 -1 -1.0 -1.0
20 -1 -1 -1.0 -1.0
21 1 6 462.0 493.0
22 2 27 236.0 275.0
23 2 18 582.0 610.0
24 1 26 567.0 598.0
25 2 4 409.0 443.0
26 1 14 621.0 650.0
27 2 16 275.0 303.0
28 0 7 574.0 608.0
29 0 11 106.0 135.0
